numerics/lpfeastol = 1e-08
feasible solution found by trivial heuristic after 0.0 seconds, objective value 0.000000e+00
presolving:
(round 1, fast)       2855 del vars, 2929 del conss, 0 add conss, 4724 chg bounds, 0 chg sides, 0 chg coeffs, 1 upgd conss, 0 impls, 0 clqs
(round 2, fast)       2857 del vars, 2929 del conss, 0 add conss, 4907 chg bounds, 0 chg sides, 0 chg coeffs, 1 upgd conss, 0 impls, 0 clqs
(round 3, exhaustive) 2857 del vars, 2930 del conss, 8 add conss, 4907 chg bounds, 0 chg sides, 0 chg coeffs, 1 upgd conss, 0 impls, 0 clqs
(round 4, fast)       2857 del vars, 2930 del conss, 8 add conss, 4914 chg bounds, 0 chg sides, 0 chg coeffs, 1 upgd conss, 0 impls, 0 clqs
(round 5, exhaustive) 2857 del vars, 2930 del conss, 8 add conss, 4914 chg bounds, 0 chg sides, 0 chg coeffs, 187 upgd conss, 0 impls, 0 clqs
   (0.0s) probing cycle finished: starting next cycle
presolving (6 rounds: 6 fast, 3 medium, 3 exhaustive):
 2857 deleted vars, 2930 deleted constraints, 8 added constraints, 4914 tightened bounds, 0 added holes, 0 changed sides, 0 changed coefficients
 867 implications, 4 cliques
presolved problem has 286 variables (73 bin, 0 int, 0 impl, 213 cont) and 233 constraints
      7 constraints of type <soc>
    186 constraints of type <varbound>
     21 constraints of type <linear>
     19 constraints of type <quadratic>
transformed objective value is always integral (scale: 1)
Presolving Time: 0.03
numerics/lpfeastol = 1e-08

  node  | left  |LP iter|LP it/n| mem |  dualbound   | primalbound  |  gap   
t     1 |     0 |     0 |     - |  13M|-3.891800e+04 |-1.178000e+03 |3203.74%
      1 |     0 |   209 |     - |  13M|-3.205870e+04 |-1.178000e+03 |2621.45%
      1 |     0 |   338 |     - |  15M|-3.010666e+04 |-1.178000e+03 |2455.74%
      1 |     0 |   409 |     - |  19M|-2.960974e+04 |-1.178000e+03 |2413.56%
      1 |     0 |   473 |     - |  19M|-2.940360e+04 |-1.178000e+03 |2396.06%
      1 |     0 |   527 |     - |  20M|-2.920737e+04 |-1.178000e+03 |2379.40%
      1 |     0 |   589 |     - |  20M|-2.907376e+04 |-1.178000e+03 |2368.06%
      1 |     0 |   650 |     - |  21M|-2.900074e+04 |-1.178000e+03 |2361.86%
      1 |     0 |   691 |     - |  21M|-2.894033e+04 |-1.178000e+03 |2356.73%
      1 |     0 |   755 |     - |  23M|-2.883824e+04 |-1.178000e+03 |2348.07%
      1 |     0 |   794 |     - |  23M|-2.880340e+04 |-1.178000e+03 |2345.11%
      1 |     0 |   828 |     - |  23M|-2.877981e+04 |-1.178000e+03 |2343.11%
      1 |     0 |   850 |     - |  23M|-2.876649e+04 |-1.178000e+03 |2341.98%
      1 |     0 |   878 |     - |  23M|-2.875916e+04 |-1.178000e+03 |2341.35%
      1 |     0 |   893 |     - |  23M|-2.875244e+04 |-1.178000e+03 |2340.78%
  node  | left  |LP iter|LP it/n| mem |  dualbound   | primalbound  |  gap   
      1 |     0 |   903 |     - |  23M|-2.874718e+04 |-1.178000e+03 |2340.34%
      1 |     0 |   912 |     - |  23M|-2.874345e+04 |-1.178000e+03 |2340.02%
E     1 |     0 |  1737 |     - |  23M|-2.874345e+04 |-2.558100e+04 |  12.36%
      1 |     0 |  1737 |     - |  23M|-2.874345e+04 |-2.558100e+04 |  12.36%
      1 |     2 |  1737 |     - |  23M|-2.861431e+04 |-2.558100e+04 |  11.86%
    100 |    77 |  7551 |  67.1 |  25M|-2.853864e+04 |-2.558100e+04 |  11.56%
    200 |   169 | 15546 |  73.5 |  26M|-2.841312e+04 |-2.558100e+04 |  11.07%
N   201 |   146 | 15650 |  73.7 |  26M|-2.841312e+04 |-2.647900e+04 |   7.30%
    300 |   245 | 24499 |  78.9 |  28M|-2.832663e+04 |-2.647900e+04 |   6.98%
    400 |   337 | 30630 |  74.5 |  30M|-2.831872e+04 |-2.647900e+04 |   6.95%
N   479 |   395 | 33286 |  67.7 |  30M|-2.829288e+04 |-2.657300e+04 |   6.47%
    500 |   414 | 34060 |  66.4 |  30M|-2.827715e+04 |-2.657300e+04 |   6.41%
    600 |   490 | 38400 |  62.6 |  31M|-2.826121e+04 |-2.657300e+04 |   6.35%
C   679 |   348 | 40558 |  58.5 |  31M|-2.825340e+04 |-2.733200e+04 |   3.37%
    700 |   357 | 41072 |  57.5 |  31M|-2.825192e+04 |-2.733200e+04 |   3.37%
  node  | left  |LP iter|LP it/n| mem |  dualbound   | primalbound  |  gap   
    800 |   369 | 43087 |  52.8 |  31M|-2.823941e+04 |-2.733200e+04 |   3.32%
    900 |   391 | 45910 |  50.1 |  32M|-2.823883e+04 |-2.733200e+04 |   3.32%
   1000 |   405 | 49036 |  48.2 |  32M|-2.823107e+04 |-2.733200e+04 |   3.29%
   1100 |   427 | 51145 |  45.7 |  32M|-2.821582e+04 |-2.733200e+04 |   3.23%
   1200 |   445 | 52829 |  43.3 |  33M|-2.821350e+04 |-2.733200e+04 |   3.23%
   1300 |   491 | 55122 |  41.7 |  34M|-2.820533e+04 |-2.733200e+04 |   3.20%
   1400 |   537 | 57622 |  40.5 |  34M|-2.818351e+04 |-2.733200e+04 |   3.12%
   1500 |   563 | 59069 |  38.8 |  34M|-2.817849e+04 |-2.733200e+04 |   3.10%
   1600 |   611 | 60542 |  37.3 |  35M|-2.816539e+04 |-2.733200e+04 |   3.05%
   1700 |   659 | 61298 |  35.5 |  35M|-2.814432e+04 |-2.733200e+04 |   2.97%
   1800 |   691 | 62070 |  34.0 |  36M|-2.814399e+04 |-2.733200e+04 |   2.97%
   1900 |   705 | 62772 |  32.6 |  36M|-2.812947e+04 |-2.733200e+04 |   2.92%
   2000 |   725 | 63238 |  31.2 |  36M|-2.812940e+04 |-2.733200e+04 |   2.92%
   2100 |   737 | 64583 |  30.3 |  36M|-2.812021e+04 |-2.733200e+04 |   2.88%
   2200 |   749 | 65347 |  29.3 |  36M|-2.811970e+04 |-2.733200e+04 |   2.88%
  node  | left  |LP iter|LP it/n| mem |  dualbound   | primalbound  |  gap   
   2300 |   749 | 66089 |  28.4 |  36M|-2.811932e+04 |-2.733200e+04 |   2.88%
   2400 |   751 | 66665 |  27.4 |  36M|-2.811869e+04 |-2.733200e+04 |   2.88%
   2500 |   765 | 67794 |  26.8 |  36M|-2.811495e+04 |-2.733200e+04 |   2.86%
   2600 |   769 | 68658 |  26.1 |  36M|-2.811353e+04 |-2.733200e+04 |   2.86%
   2700 |   803 | 70452 |  25.8 |  36M|-2.811131e+04 |-2.733200e+04 |   2.85%
   2800 |   855 | 70811 |  25.0 |  36M|-2.811131e+04 |-2.733200e+04 |   2.85%
   2900 |   889 | 71591 |  24.4 |  36M|-2.810699e+04 |-2.733200e+04 |   2.84%
   3000 |   913 | 72489 |  23.9 |  37M|-2.810358e+04 |-2.733200e+04 |   2.82%
   3100 |   917 | 73640 |  23.5 |  37M|-2.810140e+04 |-2.733200e+04 |   2.81%
   3200 |   911 | 75270 |  23.2 |  37M|-2.809696e+04 |-2.733200e+04 |   2.80%
   3300 |   931 | 77155 |  23.1 |  37M|-2.809624e+04 |-2.733200e+04 |   2.80%
   3400 |   959 | 78985 |  23.0 |  38M|-2.809537e+04 |-2.733200e+04 |   2.79%
   3500 |   953 | 80404 |  22.7 |  38M|-2.809239e+04 |-2.733200e+04 |   2.78%
   3600 |   957 | 82289 |  22.6 |  39M|-2.808624e+04 |-2.733200e+04 |   2.76%
   3700 |   975 | 85072 |  22.8 |  39M|-2.808447e+04 |-2.733200e+04 |   2.75%
  node  | left  |LP iter|LP it/n| mem |  dualbound   | primalbound  |  gap   
   3800 |   985 | 87253 |  22.7 |  40M|-2.808043e+04 |-2.733200e+04 |   2.74%
   3900 |   987 | 89798 |  22.8 |  40M|-2.806433e+04 |-2.733200e+04 |   2.68%
   4000 |   985 | 90989 |  22.5 |  41M|-2.805928e+04 |-2.733200e+04 |   2.66%
   4100 |   979 | 92860 |  22.4 |  41M|-2.805366e+04 |-2.733200e+04 |   2.64%
   4200 |   965 | 93469 |  22.0 |  41M|-2.805178e+04 |-2.733200e+04 |   2.63%
   4300 |   949 | 94188 |  21.7 |  41M|-2.804824e+04 |-2.733200e+04 |   2.62%
   4400 |   935 | 95080 |  21.4 |  42M|-2.804805e+04 |-2.733200e+04 |   2.62%
   4500 |   937 | 98074 |  21.6 |  42M|-2.804389e+04 |-2.733200e+04 |   2.60%
   4600 |   947 |100063 |  21.6 |  43M|-2.803924e+04 |-2.733200e+04 |   2.59%
   4700 |   951 |101462 |  21.4 |  43M|-2.803924e+04 |-2.733200e+04 |   2.59%
   4800 |   959 |103497 |  21.4 |  43M|-2.803503e+04 |-2.733200e+04 |   2.57%
   4900 |   987 |105368 |  21.3 |  43M|-2.802972e+04 |-2.733200e+04 |   2.55%
   5000 |  1009 |106665 |  21.2 |  44M|-2.802812e+04 |-2.733200e+04 |   2.55%
   5100 |  1049 |108062 |  21.0 |  44M|-2.802064e+04 |-2.733200e+04 |   2.52%
   5200 |  1077 |109868 |  21.0 |  44M|-2.801722e+04 |-2.733200e+04 |   2.51%
  node  | left  |LP iter|LP it/n| mem |  dualbound   | primalbound  |  gap   
   5300 |  1091 |110913 |  20.8 |  44M|-2.801362e+04 |-2.733200e+04 |   2.49%
   5400 |  1127 |112690 |  20.7 |  44M|-2.801250e+04 |-2.733200e+04 |   2.49%
   5500 |  1161 |114542 |  20.7 |  45M|-2.801016e+04 |-2.733200e+04 |   2.48%
   5600 |  1185 |115540 |  20.5 |  45M|-2.800849e+04 |-2.733200e+04 |   2.48%
   5700 |  1217 |116636 |  20.3 |  45M|-2.800594e+04 |-2.733200e+04 |   2.47%
   5800 |  1205 |118378 |  20.3 |  46M|-2.800192e+04 |-2.733200e+04 |   2.45%
   5900 |  1221 |119961 |  20.2 |  46M|-2.799897e+04 |-2.733200e+04 |   2.44%
   6000 |  1195 |121214 |  20.1 |  46M|-2.799412e+04 |-2.733200e+04 |   2.42%
   6100 |  1197 |123840 |  20.2 |  47M|-2.799131e+04 |-2.733200e+04 |   2.41%
   6200 |  1195 |125695 |  20.1 |  47M|-2.798550e+04 |-2.733200e+04 |   2.39%
   6300 |  1197 |127671 |  20.1 |  47M|-2.798481e+04 |-2.733200e+04 |   2.39%
   6400 |  1187 |129543 |  20.1 |  48M|-2.798366e+04 |-2.733200e+04 |   2.38%
   6500 |  1189 |132074 |  20.2 |  48M|-2.797452e+04 |-2.733200e+04 |   2.35%
   6600 |  1177 |134150 |  20.2 |  48M|-2.796795e+04 |-2.733200e+04 |   2.33%
   6700 |  1169 |136731 |  20.3 |  48M|-2.796469e+04 |-2.733200e+04 |   2.31%
  node  | left  |LP iter|LP it/n| mem |  dualbound   | primalbound  |  gap   
   6800 |  1175 |138704 |  20.3 |  48M|-2.796232e+04 |-2.733200e+04 |   2.31%
   6900 |  1187 |140409 |  20.2 |  49M|-2.796118e+04 |-2.733200e+04 |   2.30%
   7000 |  1171 |142438 |  20.2 |  49M|-2.795142e+04 |-2.733200e+04 |   2.27%
   7100 |  1171 |144659 |  20.2 |  49M|-2.794947e+04 |-2.733200e+04 |   2.26%
   7200 |  1205 |145549 |  20.1 |  49M|-2.794888e+04 |-2.733200e+04 |   2.26%
   7300 |  1239 |147288 |  20.1 |  49M|-2.794151e+04 |-2.733200e+04 |   2.23%
   7400 |  1281 |147950 |  19.9 |  49M|-2.794123e+04 |-2.733200e+04 |   2.23%
   7500 |  1321 |149227 |  19.8 |  49M|-2.794042e+04 |-2.733200e+04 |   2.23%
   7600 |  1381 |149806 |  19.6 |  49M|-2.794042e+04 |-2.733200e+04 |   2.23%
   7700 |  1409 |150565 |  19.4 |  50M|-2.793997e+04 |-2.733200e+04 |   2.22%
   7800 |  1419 |152276 |  19.4 |  50M|-2.793276e+04 |-2.733200e+04 |   2.20%
   7900 |  1435 |153392 |  19.3 |  50M|-2.793142e+04 |-2.733200e+04 |   2.19%
   8000 |  1455 |155040 |  19.3 |  51M|-2.793032e+04 |-2.733200e+04 |   2.19%
   8100 |  1467 |155852 |  19.1 |  51M|-2.793032e+04 |-2.733200e+04 |   2.19%
   8200 |  1475 |157136 |  19.1 |  51M|-2.792903e+04 |-2.733200e+04 |   2.18%
  node  | left  |LP iter|LP it/n| mem |  dualbound   | primalbound  |  gap   
   8300 |  1485 |158056 |  18.9 |  51M|-2.792543e+04 |-2.733200e+04 |   2.17%
   8400 |  1487 |159043 |  18.8 |  51M|-2.792543e+04 |-2.733200e+04 |   2.17%
   8500 |  1495 |159892 |  18.7 |  51M|-2.792543e+04 |-2.733200e+04 |   2.17%
   8600 |  1503 |160972 |  18.6 |  51M|-2.792530e+04 |-2.733200e+04 |   2.17%
   8700 |  1509 |162032 |  18.5 |  52M|-2.792530e+04 |-2.733200e+04 |   2.17%
   8800 |  1517 |163394 |  18.5 |  53M|-2.791994e+04 |-2.733200e+04 |   2.15%
   8900 |  1519 |165062 |  18.4 |  53M|-2.791994e+04 |-2.733200e+04 |   2.15%
   9000 |  1489 |168342 |  18.6 |  53M|-2.791001e+04 |-2.733200e+04 |   2.11%
   9100 |  1447 |170870 |  18.7 |  53M|-2.790553e+04 |-2.733200e+04 |   2.10%
   9200 |  1423 |173336 |  18.7 |  53M|-2.789744e+04 |-2.733200e+04 |   2.07%
   9300 |  1429 |175275 |  18.8 |  53M|-2.789655e+04 |-2.733200e+04 |   2.07%
   9400 |  1417 |177092 |  18.7 |  53M|-2.789217e+04 |-2.733200e+04 |   2.05%
   9500 |  1381 |178718 |  18.7 |  53M|-2.788633e+04 |-2.733200e+04 |   2.03%
   9600 |  1371 |180159 |  18.7 |  53M|-2.788423e+04 |-2.733200e+04 |   2.02%
   9700 |  1335 |181905 |  18.7 |  53M|-2.787993e+04 |-2.733200e+04 |   2.00%
  node  | left  |LP iter|LP it/n| mem |  dualbound   | primalbound  |  gap   
   9800 |  1321 |184120 |  18.7 |  53M|-2.787264e+04 |-2.733200e+04 |   1.98%
   9900 |  1301 |186202 |  18.7 |  54M|-2.786535e+04 |-2.733200e+04 |   1.95%
  10000 |  1269 |188160 |  18.7 |  54M|-2.786535e+04 |-2.733200e+04 |   1.95%
  10100 |  1249 |190357 |  18.8 |  54M|-2.786475e+04 |-2.733200e+04 |   1.95%
  10200 |  1217 |192762 |  18.8 |  54M|-2.785361e+04 |-2.733200e+04 |   1.91%
  10300 |  1191 |193694 |  18.7 |  54M|-2.785314e+04 |-2.733200e+04 |   1.91%
  10400 |  1175 |195883 |  18.7 |  54M|-2.785148e+04 |-2.733200e+04 |   1.90%
  10500 |  1143 |197675 |  18.7 |  54M|-2.784743e+04 |-2.733200e+04 |   1.89%
  10600 |  1133 |199857 |  18.8 |  54M|-2.784602e+04 |-2.733200e+04 |   1.88%
  10700 |  1123 |201361 |  18.7 |  54M|-2.784467e+04 |-2.733200e+04 |   1.88%
  10800 |  1097 |202932 |  18.7 |  54M|-2.784020e+04 |-2.733200e+04 |   1.86%
  10900 |  1093 |205072 |  18.7 |  54M|-2.783886e+04 |-2.733200e+04 |   1.85%
  11000 |  1083 |206976 |  18.7 |  54M|-2.783733e+04 |-2.733200e+04 |   1.85%
  11100 |  1075 |208803 |  18.7 |  54M|-2.783664e+04 |-2.733200e+04 |   1.85%
  11200 |  1063 |210057 |  18.7 |  54M|-2.783664e+04 |-2.733200e+04 |   1.85%
  node  | left  |LP iter|LP it/n| mem |  dualbound   | primalbound  |  gap   
  11300 |  1051 |211112 |  18.6 |  54M|-2.783546e+04 |-2.733200e+04 |   1.84%
  11400 |  1043 |212390 |  18.6 |  54M|-2.783337e+04 |-2.733200e+04 |   1.83%
  11500 |  1039 |214732 |  18.6 |  55M|-2.783139e+04 |-2.733200e+04 |   1.83%
  11600 |  1039 |216650 |  18.6 |  55M|-2.782642e+04 |-2.733200e+04 |   1.81%
  11700 |  1031 |219393 |  18.7 |  55M|-2.782605e+04 |-2.733200e+04 |   1.81%
  11800 |  1005 |220934 |  18.6 |  55M|-2.782483e+04 |-2.733200e+04 |   1.80%
  11900 |   973 |223309 |  18.7 |  55M|-2.782308e+04 |-2.733200e+04 |   1.80%
  12000 |   971 |225828 |  18.7 |  55M|-2.782128e+04 |-2.733200e+04 |   1.79%
  12100 |   967 |228331 |  18.8 |  55M|-2.781986e+04 |-2.733200e+04 |   1.78%
  12200 |   957 |230798 |  18.8 |  55M|-2.781886e+04 |-2.733200e+04 |   1.78%
  12300 |   939 |232513 |  18.8 |  55M|-2.781372e+04 |-2.733200e+04 |   1.76%
  12400 |   927 |236091 |  19.0 |  55M|-2.781188e+04 |-2.733200e+04 |   1.76%
  12500 |   923 |238385 |  19.0 |  55M|-2.780962e+04 |-2.733200e+04 |   1.75%
  12600 |   901 |240458 |  19.0 |  55M|-2.780456e+04 |-2.733200e+04 |   1.73%
  12700 |   901 |241951 |  19.0 |  55M|-2.780440e+04 |-2.733200e+04 |   1.73%
  node  | left  |LP iter|LP it/n| mem |  dualbound   | primalbound  |  gap   
  12800 |   893 |244411 |  19.0 |  55M|-2.780285e+04 |-2.733200e+04 |   1.72%
  12900 |   879 |246968 |  19.1 |  55M|-2.780182e+04 |-2.733200e+04 |   1.72%
  13000 |   859 |249332 |  19.1 |  55M|-2.779756e+04 |-2.733200e+04 |   1.70%
  13100 |   835 |251861 |  19.2 |  55M|-2.779620e+04 |-2.733200e+04 |   1.70%
  13200 |   817 |254409 |  19.2 |  55M|-2.779194e+04 |-2.733200e+04 |   1.68%
  13300 |   805 |257279 |  19.3 |  55M|-2.778581e+04 |-2.733200e+04 |   1.66%
  13400 |   793 |259795 |  19.3 |  55M|-2.777887e+04 |-2.733200e+04 |   1.63%
  13500 |   775 |262506 |  19.4 |  55M|-2.777306e+04 |-2.733200e+04 |   1.61%
  13600 |   755 |265042 |  19.4 |  55M|-2.777029e+04 |-2.733200e+04 |   1.60%
  13700 |   739 |267945 |  19.5 |  55M|-2.776720e+04 |-2.733200e+04 |   1.59%
  13800 |   727 |270244 |  19.5 |  55M|-2.776607e+04 |-2.733200e+04 |   1.59%
  13900 |   709 |272909 |  19.6 |  55M|-2.776292e+04 |-2.733200e+04 |   1.58%
  14000 |   695 |275199 |  19.6 |  55M|-2.776023e+04 |-2.733200e+04 |   1.57%
  14100 |   679 |277838 |  19.6 |  55M|-2.775779e+04 |-2.733200e+04 |   1.56%
  14200 |   669 |279812 |  19.6 |  55M|-2.775666e+04 |-2.733200e+04 |   1.55%
  node  | left  |LP iter|LP it/n| mem |  dualbound   | primalbound  |  gap   
  14300 |   655 |281478 |  19.6 |  55M|-2.775664e+04 |-2.733200e+04 |   1.55%
  14400 |   631 |283529 |  19.6 |  55M|-2.775647e+04 |-2.733200e+04 |   1.55%
  14500 |   611 |286465 |  19.7 |  55M|-2.775414e+04 |-2.733200e+04 |   1.54%
  14600 |   583 |289228 |  19.7 |  55M|-2.775304e+04 |-2.733200e+04 |   1.54%
  14700 |   573 |291204 |  19.7 |  55M|-2.775160e+04 |-2.733200e+04 |   1.54%
  14800 |   557 |292997 |  19.7 |  55M|-2.774869e+04 |-2.733200e+04 |   1.52%
  14900 |   525 |295596 |  19.8 |  55M|-2.774622e+04 |-2.733200e+04 |   1.52%
  15000 |   501 |297533 |  19.8 |  55M|-2.773520e+04 |-2.733200e+04 |   1.48%
  15100 |   475 |300297 |  19.8 |  55M|-2.772672e+04 |-2.733200e+04 |   1.44%
  15200 |   445 |302695 |  19.9 |  55M|-2.772529e+04 |-2.733200e+04 |   1.44%
  15300 |   427 |305236 |  19.9 |  55M|-2.772357e+04 |-2.733200e+04 |   1.43%
  15400 |   405 |307253 |  19.9 |  55M|-2.772100e+04 |-2.733200e+04 |   1.42%
  15500 |   385 |309634 |  19.9 |  55M|-2.771208e+04 |-2.733200e+04 |   1.39%
  15600 |   371 |311346 |  19.9 |  55M|-2.771105e+04 |-2.733200e+04 |   1.39%
  15700 |   347 |313775 |  19.9 |  55M|-2.770608e+04 |-2.733200e+04 |   1.37%
  node  | left  |LP iter|LP it/n| mem |  dualbound   | primalbound  |  gap   
  15800 |   325 |315981 |  19.9 |  55M|-2.770604e+04 |-2.733200e+04 |   1.37%
  15900 |   301 |318608 |  20.0 |  55M|-2.769985e+04 |-2.733200e+04 |   1.35%
  16000 |   275 |321570 |  20.0 |  55M|-2.769144e+04 |-2.733200e+04 |   1.32%
  16100 |   251 |323976 |  20.1 |  55M|-2.768153e+04 |-2.733200e+04 |   1.28%
  16200 |   219 |326572 |  20.1 |  55M|-2.767965e+04 |-2.733200e+04 |   1.27%
  16300 |   199 |329851 |  20.2 |  55M|-2.766556e+04 |-2.733200e+04 |   1.22%
  16400 |   173 |332140 |  20.2 |  55M|-2.764917e+04 |-2.733200e+04 |   1.16%
  16500 |   139 |334569 |  20.2 |  55M|-2.763769e+04 |-2.733200e+04 |   1.12%
  16600 |   107 |337524 |  20.3 |  55M|-2.763619e+04 |-2.733200e+04 |   1.11%
  16700 |    77 |340052 |  20.3 |  55M|-2.763377e+04 |-2.733200e+04 |   1.10%
  16800 |    57 |342163 |  20.3 |  55M|-2.760588e+04 |-2.733200e+04 |   1.00%
  16900 |    29 |344253 |  20.3 |  55M|-2.757988e+04 |-2.733200e+04 |   0.91%

SCIP Status        : problem is solved [optimal solution found]
Solving Time (sec) : 28.60
Solving Nodes      : 16981
Primal Bound       : -2.73320000000000e+04 (13 solutions)
Dual Bound         : -2.73320000000000e+04
Gap                : 0.00 %
#SOLVERNAME# SCIP_MISOCP
#SOLVER# SCIP.SCIPSolver(("limits/gap", 1.0e-5, "numerics/feastol", 1.0e-8, "limits/time", 3600.0))
#INSTANCE# ck_n75_m20_o1_5.cbf.gz
#TIMELIMIT# 3600.0
#STATUS# Optimal
#OBJVAL# 27332.0
#OBJBOUND# 27332.0
#NODECOUNT# NaN
#TIMESOLVER# 28.6
#TIMEALL# 32.02668309211731
#SOLUTION# [0.0,0.0,1.0,1.0,1.0,1.0,0.0,1.0,0.0,0.0,1.0,0.0,0.0,0.0,0.0,0.0,1.0,1.0,0.0,0.0,1.0,1.0,0.0,1.0,1.0,0.0,1.0,1.0,1.0,1.0,1.0,1.0,1.0,1.0,1.0,1.0,0.0,1.0,1.0,1.0,0.0,0.0,0.0,0.0,1.0,1.0,1.0,0.0,1.0,1.0,0.0,0.0,0.0,0.0,1.0,1.0,1.0,0.0,1.0,0.0,0.0,0.0,0.0,1.0,1.0,1.0,0.0,1.0,1.0,0.0,1.0,1.0,0.0,0.0,1.0,0.0,0.0,0.0,3.0,0.0,0.0,0.0,0.0,0.0,0.0,0.0,0.0,0.0,0.0,0.0,0.0,0.0,0.0,0.0,0.0,0.0,0.0,0.0,0.0,0.0,35.0,0.0,0.0,58.0,0.0,0.0,0.0,0.0,1.0,0.0,0.0,0.0,0.0,43.0,0.0,52.0,0.0,0.0,0.0,0.0,0.0,0.0,0.0,0.0,40.0,0.0,0.0,0.0,0.0,0.0,0.0,0.0,0.0,0.0,0.0,0.0,0.0,0.0,0.0,0.0,0.0,0.0,0.0,63.0,0.0,0.0,0.0,0.0,0.0,0.0,20.0,126.22239336158378,0.0,0.0,21.0,0.0,0.0,0.0,0.0,0.0,0.0,0.0,0.0,0.0,0.0,0.0,0.0,0.0,0.0,0.0,0.0,0.0,0.0,0.0,0.0,0.0,0.0,0.0,0.0,29.0,0.0,0.0,0.0,0.0,0.0,0.0,0.0,0.0,0.0,0.0,0.0,0.0,0.0,0.0,0.0,0.0,13.0,0.0,0.0,0.0,0.0,0.0,0.0,0.0,0.0,0.0,0.0,0.0,0.0,0.0,0.0,0.0,0.0,0.0,0.0,0.0,0.0,0.0,0.0,0.0,9.0,0.0,0.0,0.0,0.0,0.0,0.0,204.99999999999994,0.0,0.0,0.0,0.0,0.0,0.0,0.0,0.0,0.0,0.0,0.0,0.0,0.0,0.0,0.0,0.0,0.0,0.0,0.0,0.0,0.0,22.0,0.0,0.0,0.0,0.0,0.0,6.0,0.0,0.0,0.0,0.0,0.0,12.0,0.0,0.0,0.0,0.0,0.0,0.0,0.0,0.0,0.0,0.0,0.0,0.0,0.0,0.0,0.0,0.0,0.0,0.0,0.0,0.0,0.0,0.0,0.0,0.0,0.0,0.0,0.0,0.0,0.0,34.0,0.0,0.0,0.0,0.0,0.0,0.0,2.0,0.0,0.0,0.0,0.0,42.85825060407119,0.0,0.0,0.0,0.0,0.0,0.0,0.0,1.0,0.0,0.0,0.0,0.0,0.0,0.0,0.0,0.0,0.0,0.0,0.0,0.0,0.0,0.0,0.0,0.0,0.0,0.0,0.0,0.0,0.0,0.0,0.0,0.0,0.0,0.0,0.0,0.0,0.0,0.0,0.0,0.0,0.0,0.0,0.0,0.0,0.0,0.0,0.0,0.0,0.0,9.0,0.0,0.0,0.0,0.0,24.999999999999996,31.0,0.0,0.0,0.0,0.0,0.0,0.0,0.0,16.0,0.0,0.0,0.0,1.0,0.0,0.0,0.0,0.0,0.0,0.0,0.0,185.0,0.0,0.0,0.0,0.0,2.0,0.0,0.0,0.0,0.0,0.0,0.0,0.0,0.0,0.0,0.0,0.0,0.0,0.0,0.0,0.0,16.0,0.0,0.0,0.0,0.0,0.0,0.0,0.0,0.0,0.0,9.0,3.0,0.0,0.0,0.0,0.0,0.0,0.0,73.0,0.0,0.0,0.0,0.0,0.0,0.0,0.0,0.0,0.0,0.0,45.0,0.0,0.0,0.0,0.0,0.0,0.0,0.0,0.0,57.0,0.0,0.0,0.0,0.0,0.0,27.0,0.0,0.0,0.0,0.0,0.0,0.0,0.0,0.0,0.0,0.0,117.72282402658333,0.0,0.0,0.0,0.0,27.0,0.0,0.0,39.0,0.0,0.0,0.0,0.0,0.0,0.0,0.0,0.0,0.0,0.0,0.0,0.0,0.0,0.0,0.0,0.0,0.0,0.0,0.0,0.0,0.0,0.0,0.0,0.0,52.0,0.0,18.0,17.0,0.0,26.0,0.0,0.0,0.0,0.0,0.0,0.0,0.0,3.0,0.0,0.0,0.0,1.0,0.0,0.0,0.0,0.0,0.0,0.0,0.0,0.0,0.0,0.0,0.0,0.0,0.0,0.0,32.0,0.0,0.0,0.0,29.999999999999996,0.0,0.0,0.0,0.0,0.0,0.0,124.13949440293635,0.0,0.0,0.0,0.0,0.0,0.0,0.0,57.0,0.0,0.0,1.0,0.0,0.0,0.0,0.0,0.0,12.0,0.0,0.0,0.0,0.0,0.0,0.0,0.0,0.0,0.0,0.0,0.0,0.0,0.0,0.0,0.0,0.0,0.0,0.0,0.0,0.0,0.0,0.0,0.0,0.0,0.0,0.0,0.0,0.0,0.0,0.0,0.0,12.0,0.0,0.0,0.0,0.0,0.0,0.0,0.0,0.0,0.0,0.0,0.0,0.0,0.0,0.0,0.0,0.0,0.0,0.0,0.0,5.0,0.0,0.0,0.0,0.0,0.0,0.0,80.42967980082989,0.0,0.0,0.0,0.0,1.0,0.0,0.0,0.0,0.0,0.0,0.0,0.0,0.0,0.0,0.0,0.0,0.0,0.0,0.0,0.0,0.0,0.0,0.0,0.0,0.0,0.0,0.0,0.0,0.0,0.0,0.0,0.0,0.0,32.0,0.0,0.0,0.0,0.0,0.0,0.0,0.0,0.0,0.0,0.0,0.0,0.0,0.0,0.0,17.0,0.0,0.0,0.0,0.0,0.0,0.0,0.0,0.0,0.0,18.0,0.0,0.0,0.0,0.0,0.0,0.0,0.0,0.0,0.0,0.0,0.0,0.0,0.0,0.0,0.0,0.0,48.0,0.0,0.0,0.0,0.0,0.0,0.0,0.0,0.0,0.0,0.0,0.0,0.0,0.0,0.0,0.0,0.0,0.0,1.0,0.0,0.0,0.0,1.0,0.0,0.0,0.0,0.0,0.0,0.0,0.0,0.0,0.0,0.0,0.0,0.0,0.0,0.0,0.0,0.0,56.00000000000001,0.0,0.0,0.0,0.0,0.0,0.0,49.99999999999999,0.0,0.0,0.0,33.0,0.0,0.0,0.0,0.0,0.0,0.0,2.0,0.0,0.0,0.0,0.0,0.0,0.0,0.0,0.0,0.0,0.0,0.0,0.0,0.0,0.0,0.0,0.0,0.0,0.0,106.87979654422374,0.0,0.0,0.0,0.0,0.0,0.0,0.0,0.0,0.0,0.0,0.0,0.0,0.0,0.0,0.0,0.0,0.0,0.0,0.0,0.0,0.0,0.0,0.0,0.0,0.0,0.0,33.0,0.0,0.0,0.0,0.0,0.0,0.0,0.0,0.0,0.0,0.0,0.0,0.0,0.0,0.0,0.0,0.0,0.0,0.0,0.0,0.0,0.0,0.0,0.0,0.0,0.0,0.0,0.0,0.0,0.0,0.0,0.0,0.0,0.0,0.0,0.0,0.0,0.0,0.0,0.0,0.0,0.0,0.0,0.0,0.0,0.0,0.0,0.0,0.0,61.461636192470884,0.0,0.0,0.0,0.0,0.0,0.0,0.0,0.0,0.0,0.0,0.0,0.0,0.0,0.0,0.0,0.0,0.0,0.0,0.0,0.0,0.0,0.0,0.0,0.0,0.0,0.0,0.0,0.0,0.0,0.0,0.0,0.0,0.0,41.0,0.0,0.0,0.0,0.0,64.0,0.0,0.0,0.0,0.0,0.0,75.0,0.0,0.0,0.0,0.0,0.0,0.0,0.0,0.0,0.0,0.0,0.0,0.0,0.0,0.0,0.0,0.0,0.0,0.0,0.0,0.0,0.0,0.0,0.0,0.0,0.0,0.0,0.0,0.0,0.0,0.0,123.26856622968367,0.0,0.0,0.0,0.0,0.0,82.0,0.0,0.0,0.0,0.0,0.0,0.0,0.0,0.0,0.0,0.0,0.0,0.0,0.0,0.0,0.0,0.0,0.0,0.0,0.0,0.0,0.0,0.0,0.0,0.0,0.0,0.0,13.0,0.0,0.0,0.0,0.0,0.0,0.0,0.0,0.0,0.0,0.0,0.0,0.0,0.0,0.0,0.0,0.0,0.0,0.0,0.0,0.0,0.0,0.0,0.0,0.0,0.0,0.0,0.0,0.0,0.0,0.0,0.0,0.0,0.0,0.0,0.0,0.0,0.0,0.0,0.0,0.0,0.0,33.0,111.71871653375746,0.0,0.0,0.0,0.0,0.0,22.0,0.0,0.0,0.0,0.0,0.0,0.0,0.0,0.0,0.0,0.0,0.0,0.0,0.0,0.0,0.0,0.0,0.0,0.0,0.0,0.0,0.0,0.0,0.0,0.0,0.0,0.0,0.0,0.0,0.0,0.0,0.0,5.0,0.0,26.0,0.0,0.0,0.0,0.0,0.0,0.0,0.0,0.0,0.0,0.0,0.0,0.0,0.0,0.0,0.0,0.0,0.0,0.0,0.0,0.0,0.0,0.0,0.0,1.0,0.0,0.0,0.0,39.0,0.0,0.0,0.0,0.0,0.0,0.0,0.0,73.24305961464583,0.0,0.0,0.0,0.0,0.0,0.0,0.0,54.99999999999999,0.0,0.0,0.0,0.0,0.0,0.0,0.0,0.0,0.0,0.0,0.0,0.0,1.0,0.0,0.0,0.0,0.0,0.0,0.0,0.0,0.0,0.0,0.0,49.0,3.0,0.0,0.0,0.0,0.0,0.0,12.0,0.0,0.0,0.0,0.0,0.0,0.0,4.0,0.0,0.0,3.0,0.0,0.0,0.0,0.0,0.0,0.0,0.0,0.0,0.0,0.0,0.0,0.0,0.0,0.0,0.0,0.0,0.0,0.0,0.0,0.0,0.0,0.0,0.0,0.0,0.0,0.0,78.60880493043541,0.0,0.0,34.0,0.0,0.0,0.0,0.0,0.0,0.0,0.0,0.0,0.0,0.0,0.0,0.0,0.0,0.0,0.0,0.0,0.0,0.0,0.0,0.0,0.0,0.0,0.0,4.0,0.0,33.0,0.0,0.0,0.0,0.0,0.0,18.0,0.0,0.0,0.0,0.0,0.0,0.0,0.0,0.0,0.0,0.0,11.0,0.0,0.0,0.0,0.0,0.0,0.0,0.0,0.0,0.0,0.0,0.0,0.0,0.0,0.0,0.0,0.0,0.0,0.0,0.0,0.0,0.0,0.0,0.0,0.0,0.0,0.0,0.0,0.0,0.0,69.82853088407337,0.0,0.0,0.0,0.0,0.0,0.0,0.0,0.0,0.0,0.0,0.0,0.0,0.0,0.0,0.0,0.0,0.0,0.0,0.0,0.0,0.0,0.0,0.0,0.0,0.0,0.0,0.0,13.0,0.0,0.0,9.0,0.0,0.0,0.0,0.0,0.0,0.0,23.0,0.0,0.0,0.0,0.0,0.0,0.0,7.0,0.0,0.0,0.0,0.0,0.0,0.0,0.0,0.0,0.0,0.0,0.0,0.0,0.0,29.0,0.0,0.0,0.0,0.0,0.0,0.0,3.0,0.0,13.0,0.0,0.0,0.0,0.0,0.0,0.0,0.0,44.006032882915356,0.0,0.0,0.0,43.0,0.0,0.0,0.0,0.0,0.0,0.0,0.0,0.0,0.0,0.0,0.0,0.0,0.0,0.0,0.0,0.0,0.0,0.0,0.0,0.0,0.0,0.0,0.0,0.0,0.0,0.0,1.0,0.0,18.0,0.0,0.0,0.0,0.0,0.0,0.0,0.0,0.0,0.0,0.0,0.0,8.0,0.0,0.0,0.0,21.0,0.0,0.0,0.0,0.0,0.0,0.0,0.0,0.0,0.0,2.0,0.0,0.0,0.0,0.0,0.0,0.0,0.0,0.0,0.0,0.0,0.0,0.0,0.0,0.0,0.0,0.0,68.32492169139661,0.0,0.0,1.0,0.0,0.0,0.0,0.0,0.0,0.0,0.0,0.0,0.0,0.0,0.0,0.0,0.0,0.0,0.0,0.0,0.0,23.0,0.0,0.0,0.0,12.0,0.0,0.0,0.0,0.0,0.0,0.0,0.0,0.0,0.0,0.0,0.0,0.0,28.000000000000004,0.0,0.0,0.0,0.0,0.0,0.0,0.0,0.0,0.0,0.0,0.0,0.0,0.0,0.0,0.0,0.0,0.0,0.0,0.0,0.0,0.0,0.0,0.0,0.0,0.0,0.0,0.0,0.0,0.0,2.0,58.0,0.0,0.0,0.0,0.0,0.0,0.0,77.0,0.0,0.0,0.0,0.0,0.0,0.0,0.0,0.0,0.0,0.0,0.0,0.0,0.0,0.0,0.0,0.0,0.0,29.0,0.0,0.0,0.0,0.0,0.0,0.0,0.0,0.0,0.0,0.0,0.0,0.0,0.0,0.0,0.0,0.0,0.0,0.0,0.0,0.0,24.0,0.0,0.0,0.0,0.0,0.0,0.0,0.0,0.0,0.0,0.0,16.0,0.0,0.0,0.0,0.0,0.0,13.0,0.0,0.0,0.0,0.0,0.0,0.0,0.0,0.0,0.0,0.0,0.0,0.0,0.0,0.0,0.0,31.0,0.0,0.0,0.0,62.00153933318738,0.0,0.0,0.0,0.0,0.0,8.0,0.0,0.0,0.0,0.0,0.0,0.0,0.0,0.0,0.0,0.0,0.0,0.0,0.0,0.0,14.000000000000002,0.0,0.0,0.0,0.0,0.0,0.0,0.0,0.0,5.0,0.0,0.0,0.0,8.0,0.0,0.0,0.0,0.0,0.0,0.0,0.0,0.0,0.0,0.0,0.0,0.0,0.0,0.0,0.0,0.0,0.0,0.0,0.0,0.0,0.0,0.0,0.0,0.0,0.0,0.0,0.0,0.0,0.0,0.0,0.0,0.0,0.0,0.0,83.0,0.0,21.0,0.0,0.0,0.0,0.0,162.0,178.5054205671435,89.25271028357176,0.0,0.0,4.242640687119285,0.0,0.0,0.0,0.0,0.0,0.0,0.0,0.0,0.0,0.0,0.0,0.0,0.0,0.0,0.0,0.0,0.0,0.0,0.0,0.0,0.0,49.49747468305832,0.0,0.0,82.02438661763951,0.0,0.0,0.0,0.0,1.414213562373095,0.0,0.0,0.0,0.0,60.81118318204308,0.0,73.53910524340094,0.0,0.0,0.0,0.0,0.0,0.0,0.0,0.0,56.5685424949238,0.0,0.0,0.0,0.0,0.0,0.0,0.0,0.0,0.0,0.0,0.0,0.0,0.0,0.0,0.0,0.0,0.0,0.0,89.09545442950498,0.0,0.0,0.0,0.0,0.0,0.0,28.2842712474619,289.9137802864844,144.95689014324222,0.0,0.0,29.698484809834994,0.0,0.0,0.0,0.0,0.0,0.0,0.0,0.0,0.0,0.0,0.0,0.0,0.0,0.0,0.0,0.0,0.0,0.0,0.0,0.0,0.0,0.0,0.0,0.0,41.012193308819754,0.0,0.0,0.0,0.0,0.0,0.0,0.0,0.0,0.0,0.0,0.0,0.0,0.0,0.0,0.0,0.0,18.384776310850235,0.0,0.0,0.0,0.0,0.0,0.0,0.0,0.0,0.0,0.0,0.0,0.0,0.0,0.0,0.0,0.0,0.0,0.0,0.0,0.0,0.0,0.0,0.0,12.727922061357859,0.0,0.0,0.0,0.0,0.0,0.0,60.61071926386236,30.305359631931186,0.0,0.0,0.0,0.0,0.0,0.0,0.0,0.0,0.0,0.0,0.0,0.0,0.0,0.0,0.0,0.0,0.0,0.0,0.0,0.0,0.0,31.11269837220809,0.0,0.0,0.0,0.0,0.0,8.48528137423857,0.0,0.0,0.0,0.0,0.0,16.97056274847714,0.0,0.0,0.0,0.0,0.0,0.0,0.0,0.0,0.0,0.0,0.0,0.0,0.0,0.0,0.0,0.0,0.0,0.0,0.0,0.0,0.0,0.0,0.0,0.0,0.0,0.0,0.0,0.0,0.0,48.08326112068523,0.0,0.0,0.0,0.0,0.0,0.0,2.82842712474619,0.0,0.0,0.0,0.0,261.62950903902254,130.8147545195113,0.0,0.0,0.0,0.0,0.0,0.0,0.0,1.414213562373095,0.0,0.0,0.0,0.0,0.0,0.0,0.0,0.0,0.0,0.0,0.0,0.0,0.0,0.0,0.0,0.0,0.0,0.0,0.0,0.0,0.0,0.0,0.0,0.0,0.0,0.0,0.0,0.0,0.0,0.0,0.0,0.0,0.0,0.0,0.0,0.0,0.0,0.0,0.0,0.0,0.0,12.727922061357859,0.0,0.0,0.0,0.0,35.35533905932737,43.840620433565945,0.0,0.0,0.0,0.0,0.0,0.0,0.0,22.62741699796952,0.0,0.0,0.0,1.414213562373095,0.0,0.0,0.0,0.0,0.0,0.0,0.0,166.48521433925538,83.2426071696277,0.0,0.0,0.0,0.0,2.82842712474619,0.0,0.0,0.0,0.0,0.0,0.0,0.0,0.0,0.0,0.0,0.0,0.0,0.0,0.0,0.0,22.62741699796952,0.0,0.0,0.0,0.0,0.0,0.0,0.0,0.0,0.0,12.727922061357859,4.242640687119285,0.0,0.0,0.0,0.0,0.0,0.0,103.23759005323593,0.0,0.0,0.0,0.0,0.0,0.0,0.0,0.0,0.0,0.0,63.63961030678927,0.0,0.0,0.0,0.0,0.0,0.0,0.0,0.0,80.61017305526642,0.0,0.0,0.0,0.0,0.0,38.18376618407356,0.0,0.0,0.0,0.0,0.0,0.0,0.0,0.0,0.0,0.0,175.5597566107715,87.77987830538576,0.0,0.0,0.0,0.0,38.18376618407356,0.0,0.0,55.154328932550705,0.0,0.0,0.0,0.0,0.0,0.0,0.0,0.0,0.0,0.0,0.0,0.0,0.0,0.0,0.0,0.0,0.0,0.0,0.0,0.0,0.0,0.0,0.0,0.0,73.53910524340094,0.0,25.45584412271571,24.041630560342615,0.0,36.76955262170047,0.0,0.0,0.0,0.0,0.0,0.0,0.0,4.242640687119285,0.0,0.0,0.0,1.414213562373095,0.0,0.0,0.0,0.0,0.0,0.0,0.0,0.0,0.0,0.0,0.0,0.0,0.0,0.0,45.25483399593904,0.0,0.0,0.0,42.426406871192846,0.0,0.0,0.0,0.0,0.0,0.0,113.74474399165899,56.87237199582951,0.0,0.0,0.0,0.0,0.0,0.0,0.0,80.61017305526642,0.0,0.0,1.414213562373095,0.0,0.0,0.0,0.0,0.0,16.97056274847714,0.0,0.0,0.0,0.0,0.0,0.0,0.0,0.0,0.0,0.0,0.0,0.0,0.0,0.0,0.0,0.0,0.0,0.0,0.0,0.0,0.0,0.0,0.0,0.0,0.0,0.0,0.0,0.0,0.0,0.0,0.0,16.97056274847714,0.0,0.0,0.0,0.0,0.0,0.0,0.0,0.0,0.0,0.0,0.0,0.0,0.0,0.0,0.0,0.0,0.0,0.0,0.0,7.071067811865475,0.0,0.0,0.0,0.0,0.0,0.0,67.88225099390856,33.941125496954285,0.0,0.0,0.0,0.0,1.414213562373095,0.0,0.0,0.0,0.0,0.0,0.0,0.0,0.0,0.0,0.0,0.0,0.0,0.0,0.0,0.0,0.0,0.0,0.0,0.0,0.0,0.0,0.0,0.0,0.0,0.0,0.0,0.0,0.0,45.25483399593904,0.0,0.0,0.0,0.0,0.0,0.0,0.0,0.0,0.0,0.0,0.0,0.0,0.0,0.0,24.041630560342615,0.0,0.0,0.0,0.0,0.0,0.0,0.0,0.0,0.0,25.45584412271571,0.0,0.0,0.0,0.0,0.0,0.0,0.0,0.0,0.0,0.0,0.0,0.0,0.0,0.0,0.0,0.0,151.15085781651825,75.57542890825914,0.0,0.0,0.0,0.0,0.0,0.0,0.0,0.0,0.0,0.0,0.0,0.0,0.0,0.0,0.0,0.0,0.0,1.414213562373095,0.0,0.0,0.0,1.414213562373095,0.0,0.0,0.0,0.0,0.0,0.0,0.0,0.0,0.0,0.0,0.0,0.0,0.0,0.0,0.0,0.0,79.19595949289332,0.0,0.0,0.0,0.0,0.0,0.0,70.71067811865474,0.0,0.0,0.0,46.66904755831214,0.0,0.0,0.0,0.0,0.0,0.0,2.82842712474619,0.0,0.0,0.0,0.0,0.0,0.0,0.0,0.0,0.0,0.0,0.0,0.0,0.0,0.0,0.0,0.0,0.0,0.0,86.91987946903339,43.4599397345167,0.0,0.0,0.0,0.0,0.0,0.0,0.0,0.0,0.0,0.0,0.0,0.0,0.0,0.0,0.0,0.0,0.0,0.0,0.0,0.0,0.0,0.0,0.0,0.0,0.0,0.0,46.66904755831214,0.0,0.0,0.0,0.0,0.0,0.0,0.0,0.0,0.0,0.0,0.0,0.0,0.0,0.0,0.0,0.0,0.0,0.0,0.0,0.0,0.0,0.0,0.0,0.0,0.0,0.0,0.0,0.0,0.0,0.0,0.0,0.0,0.0,0.0,0.0,0.0,0.0,0.0,0.0,0.0,0.0,0.0,0.0,0.0,0.0,0.0,0.0,0.0,174.32807817630473,87.16403908815238,0.0,0.0,0.0,0.0,0.0,0.0,0.0,0.0,0.0,0.0,0.0,0.0,0.0,0.0,0.0,0.0,0.0,0.0,0.0,0.0,0.0,0.0,0.0,0.0,0.0,0.0,0.0,0.0,0.0,0.0,0.0,0.0,0.0,57.982756057296896,0.0,0.0,0.0,0.0,90.50966799187808,0.0,0.0,0.0,0.0,0.0,106.06601717798212,0.0,0.0,0.0,0.0,0.0,0.0,0.0,0.0,0.0,0.0,0.0,0.0,0.0,0.0,0.0,0.0,0.0,0.0,0.0,0.0,0.0,0.0,0.0,0.0,0.0,0.0,0.0,0.0,0.0,0.0,157.9941240929551,78.99706204647757,0.0,0.0,0.0,0.0,0.0,115.96551211459379,0.0,0.0,0.0,0.0,0.0,0.0,0.0,0.0,0.0,0.0,0.0,0.0,0.0,0.0,0.0,0.0,0.0,0.0,0.0,0.0,0.0,0.0,0.0,0.0,0.0,0.0,18.384776310850235,0.0,0.0,0.0,0.0,0.0,0.0,0.0,0.0,0.0,0.0,0.0,0.0,0.0,0.0,0.0,0.0,0.0,0.0,0.0,0.0,0.0,0.0,0.0,0.0,0.0,0.0,0.0,0.0,0.0,0.0,0.0,0.0,0.0,0.0,0.0,0.0,0.0,0.0,0.0,0.0,0.0,46.66904755831214,103.58132825673323,51.79066412836663,0.0,0.0,0.0,0.0,0.0,31.11269837220809,0.0,0.0,0.0,0.0,0.0,0.0,0.0,0.0,0.0,0.0,0.0,0.0,0.0,0.0,0.0,0.0,0.0,0.0,0.0,0.0,0.0,0.0,0.0,0.0,0.0,0.0,0.0,0.0,0.0,0.0,0.0,7.071067811865475,0.0,36.76955262170047,0.0,0.0,0.0,0.0,0.0,0.0,0.0,0.0,0.0,0.0,0.0,0.0,0.0,0.0,0.0,0.0,0.0,0.0,0.0,0.0,0.0,0.0,0.0,1.414213562373095,0.0,0.0,0.0,55.154328932550705,0.0,0.0,0.0,0.0,0.0,0.0,0.0,111.16963805456277,55.5848190272814,0.0,0.0,0.0,0.0,0.0,0.0,0.0,77.78174593052022,0.0,0.0,0.0,0.0,0.0,0.0,0.0,0.0,0.0,0.0,0.0,0.0,1.414213562373095,0.0,0.0,0.0,0.0,0.0,0.0,0.0,0.0,0.0,0.0,69.29646455628165,4.242640687119285,0.0,0.0,0.0,0.0,0.0,16.97056274847714,0.0,0.0,0.0,0.0,0.0,0.0,5.65685424949238,0.0,0.0,4.242640687119285,0.0,0.0,0.0,0.0,0.0,0.0,0.0,0.0,0.0,0.0,0.0,0.0,0.0,0.0,0.0,0.0,0.0,0.0,0.0,0.0,0.0,0.0,0.0,0.0,0.0,0.0,98.75245541684508,49.376227708422554,0.0,0.0,48.08326112068523,0.0,0.0,0.0,0.0,0.0,0.0,0.0,0.0,0.0,0.0,0.0,0.0,0.0,0.0,0.0,0.0,0.0,0.0,0.0,0.0,0.0,0.0,0.0,5.65685424949238,0.0,46.66904755831214,0.0,0.0,0.0,0.0,0.0,25.45584412271571,0.0,0.0,0.0,0.0,0.0,0.0,0.0,0.0,0.0,0.0,15.556349186104045,0.0,0.0,0.0,0.0,0.0,0.0,0.0,0.0,0.0,0.0,0.0,0.0,0.0,0.0,0.0,0.0,0.0,0.0,0.0,0.0,0.0,0.0,0.0,0.0,0.0,0.0,0.0,0.0,0.0,62.23392852925528,31.116964264627647,0.0,0.0,0.0,0.0,0.0,0.0,0.0,0.0,0.0,0.0,0.0,0.0,0.0,0.0,0.0,0.0,0.0,0.0,0.0,0.0,0.0,0.0,0.0,0.0,0.0,0.0,0.0,18.384776310850235,0.0,0.0,12.727922061357859,0.0,0.0,0.0,0.0,0.0,0.0,32.526911934581186,0.0,0.0,0.0,0.0,0.0,0.0,9.899494936611664,0.0,0.0,0.0,0.0,0.0,0.0,0.0,0.0,0.0,0.0,0.0,0.0,0.0,41.012193308819754,0.0,0.0,0.0,0.0,0.0,0.0,4.242640687119285,0.0,18.384776310850235,0.0,0.0,0.0,0.0,0.0,0.0,0.0,96.62603090405273,48.31301545202638,0.0,0.0,0.0,60.81118318204308,0.0,0.0,0.0,0.0,0.0,0.0,0.0,0.0,0.0,0.0,0.0,0.0,0.0,0.0,0.0,0.0,0.0,0.0,0.0,0.0,0.0,0.0,0.0,0.0,0.0,0.0,1.414213562373095,0.0,25.45584412271571,0.0,0.0,0.0,0.0,0.0,0.0,0.0,0.0,0.0,0.0,0.0,11.31370849898476,0.0,0.0,0.0,29.698484809834994,0.0,0.0,0.0,0.0,0.0,0.0,0.0,0.0,0.0,2.82842712474619,0.0,0.0,0.0,0.0,0.0,0.0,0.0,0.0,0.0,0.0,0.0,0.0,0.0,0.0,0.0,0.0,108.8944443027283,54.447222151364166,0.0,0.0,1.414213562373095,0.0,0.0,0.0,0.0,0.0,0.0,0.0,0.0,0.0,0.0,0.0,0.0,0.0,0.0,0.0,0.0,0.0,32.526911934581186,0.0,0.0,0.0,16.97056274847714,0.0,0.0,0.0,0.0,0.0,0.0,0.0,0.0,0.0,0.0,0.0,0.0,39.59797974644666,0.0,0.0,0.0,0.0,0.0,0.0,0.0,0.0,0.0,0.0,0.0,0.0,0.0,0.0,0.0,0.0,0.0,0.0,0.0,0.0,0.0,0.0,0.0,0.0,0.0,0.0,0.0,0.0,0.0,2.82842712474619,82.02438661763951,0.0,0.0,0.0,0.0,0.0,0.0,87.68341781300249,43.84170890650125,0.0,0.0,0.0,0.0,0.0,0.0,0.0,0.0,0.0,0.0,0.0,0.0,0.0,0.0,0.0,0.0,0.0,41.012193308819754,0.0,0.0,0.0,0.0,0.0,0.0,0.0,0.0,0.0,0.0,0.0,0.0,0.0,0.0,0.0,0.0,0.0,0.0,0.0,0.0,33.94112549695428,0.0,0.0,0.0,0.0,0.0,0.0,0.0,0.0,0.0,0.0,22.62741699796952,0.0,0.0,0.0,0.0,0.0,18.384776310850235,0.0,0.0,0.0,0.0,0.0,0.0,0.0,0.0,0.0,0.0,0.0,0.0,0.0,0.0,0.0,43.840620433565945,0.0,0.0,0.0,229.10259710444134,114.5512985522207,0.0,0.0,0.0,0.0,0.0,11.31370849898476,0.0,0.0,0.0,0.0,0.0,0.0,0.0,0.0,0.0,0.0,0.0,0.0,0.0,0.0,19.79898987322333,0.0,0.0,0.0,0.0,0.0,0.0,0.0,0.0,7.071067811865475,0.0,0.0,0.0,11.31370849898476,0.0,0.0,0.0,0.0,0.0,0.0,0.0,0.0,0.0,0.0,0.0,0.0,0.0,0.0,0.0,0.0,0.0,0.0,0.0,0.0,0.0,0.0,0.0,0.0,0.0,0.0,0.0,0.0,0.0,0.0,0.0,0.0,0.0,0.0,117.37972567696688,0.0,29.698484809834994,0.0,0.0,0.0,0.0]
